17	4	3
15	17	19	16	44	33	17	
0	0	0	0	0	2	1	9	3	10	10	3	2	3	4
10	4	10	5	0	8	1	7	9	6	8	2	8	17
6	0	0	7	0	5	5	4	3	2	5	3	5	6	12
5	0	5	0	9	4	7	4	1	8	9	2	10	17
8	4	8	0	0	4	2	8	7	5	5	2	7	14
125	0	2	0	0	10	6	5	9	8	5	2	9	14
250	0	0	9	0	8	6	5	5	5	1	2	10	13
175	0	0	9	5	2	10	6	6	2	7	3	10	11	17
150	3	0	10	0	10	6	4	3	7	2	1	17
225	3	3	4	2	1	10	3	9	7	8	2	15	17
200	0	8	0	6	3	6	3	7	5	1	1	15
250	0	3	0	0	2	2	7	7	7	2	1	17
5	0	6	0	3	8	8	1	3	4	3	2	15	17
3	7	0	0	0	10	3	8	3	6	5	2	16	17
6	0	0	3	2	4	7	4	7	5	10	1	17
3	2	0	3	0	4	7	6	7	4	10	2	17	17
0	0	0	0	0	8	6	2	4	2	9	0
